c This is QMaxSAT 2017 based on 14.07
c This is Glucose 3.0
c This is MiniSat 2.2.0
c WARNING: for repeatability, setting FPU to use double precision
c card = mrwto, comp = 0, pmodel = 0, narr = 18, mct = 76, verb = 0
cr firstCPXsol 0 0 0
c top = 189219
c |  Number of variables:    17298                                            |
c |  Number of clauses:      1391211                                          |
c |  Weight of hard clauses: 189219                                           |
c |  Number of soft clauses: 148500                                           |
c |  Number of unit soft clauses: 0                                           |
c |  Maximum Cardinality (by unit): 4853916      (0           )               |
c last restart ## conflicts  :  2 4319 
o 868 | cpuTime 0.19883 s
c Sum of weights = 269662
c A number of soft clauses remained = 8250
c MRWTO encoding for Pseudo-Boolean Constraints
c sizeMax=868
c No.0 Divisor=10	generated by pow1
c No.1 Divisor=10	generated by pow1
c No.2 Divisor=10	generated by pow1
c p0= 10	p1= 10	p2= 10	
c number of digits = 4
c linkingVar[0].size = 10, linkingVar[1].size = 10, linkingVar[2].size = 9, linkingVar[3].size = 1, 
c Pseudo-Boolean Constraints: 147695 variables and 1199116 clauses
c Sum of weights = 269662
c A number of soft clauses remained = 8250
c MRWTO encoding for Pseudo-Boolean Constraints
c sizeMax=868
c No.0 Divisor=10	generated by pow1
c No.1 Divisor=10	generated by pow1
c No.2 Divisor=10	generated by pow1
c p0= 10	p1= 10	p2= 10	
c number of digits = 4
c linkingVar[0].size = 10, linkingVar[1].size = 10, linkingVar[2].size = 9, linkingVar[3].size = 1, 
c Pseudo-Boolean Constraints: 147695 variables and 1199116 clauses
c Sum of weights = 269662
c A number of soft clauses remained = 8250
c MRWTO encoding for Pseudo-Boolean Constraints
c sizeMax=868
c No.0 Divisor=10	generated by pow1
c No.1 Divisor=10	generated by pow1
c No.2 Divisor=10	generated by pow1
c p0= 10	p1= 10	p2= 10	
c number of digits = 4
c linkingVar[0].size = 10, linkingVar[1].size = 10, linkingVar[2].size = 9, linkingVar[3].size = 1, 
c Pseudo-Boolean Constraints: 147695 variables and 1199116 clauses
c Sum of weights = 269662
c A number of soft clauses remained = 8250
c MRWTO encoding for Pseudo-Boolean Constraints
c sizeMax=868
c No.0 Divisor=10	generated by pow1
c No.1 Divisor=10	generated by pow1
c No.2 Divisor=10	generated by pow1
c p0= 10	p1= 10	p2= 10	
c number of digits = 4
c linkingVar[0].size = 10, linkingVar[1].size = 10, linkingVar[2].size = 9, linkingVar[3].size = 1, 
c Pseudo-Boolean Constraints: 147695 variables and 1199116 clauses
c Sum of weights = 269662
c A number of soft clauses remained = 8250
c MRWTO encoding for Pseudo-Boolean Constraints
c sizeMax=868
c No.0 Divisor=10	generated by pow1
c No.1 Divisor=10	generated by pow1
c No.2 Divisor=10	generated by pow1
c p0= 10	p1= 10	p2= 10	
c number of digits = 4
c linkingVar[0].size = 10, linkingVar[1].size = 10, linkingVar[2].size = 9, linkingVar[3].size = 1, 
c Pseudo-Boolean Constraints: 147695 variables and 1199116 clauses
c Sum of weights = 269662
c A number of soft clauses remained = 8250
c MRWTO encoding for Pseudo-Boolean Constraints
c sizeMax=868
c No.0 Divisor=10	generated by pow1
c No.1 Divisor=10	generated by pow1
c No.2 Divisor=10	generated by pow1
c p0= 10	p1= 10	p2= 10	
c number of digits = 4
c linkingVar[0].size = 10, linkingVar[1].size = 10, linkingVar[2].size = 9, linkingVar[3].size = 1, 
c Pseudo-Boolean Constraints: 147695 variables and 1199116 clauses
c Sum of weights = 269662
c A number of soft clauses remained = 8250
c MRWTO encoding for Pseudo-Boolean Constraints
c sizeMax=868
c No.0 Divisor=10	generated by pow1
c No.1 Divisor=10	generated by pow1
c No.2 Divisor=10	generated by pow1
c p0= 10	p1= 10	p2= 10	
c number of digits = 4
c linkingVar[0].size = 10, linkingVar[1].size = 10, linkingVar[2].size = 9, linkingVar[3].size = 1, 
c Pseudo-Boolean Constraints: 147695 variables and 1199116 clauses
c Sum of weights = 269662
c A number of soft clauses remained = 8250
c MRWTO encoding for Pseudo-Boolean Constraints
c sizeMax=868
c No.0 Divisor=10	generated by pow1
c No.1 Divisor=10	generated by pow1
c No.2 Divisor=10	generated by pow1
c p0= 10	p1= 10	p2= 10	
c number of digits = 4
c linkingVar[0].size = 10, linkingVar[1].size = 10, linkingVar[2].size = 9, linkingVar[3].size = 1, 
c Pseudo-Boolean Constraints: 147695 variables and 1199116 clauses
c Sum of weights = 269662
c A number of soft clauses remained = 8250
c MRWTO encoding for Pseudo-Boolean Constraints
c sizeMax=868
c No.0 Divisor=10	generated by pow1
c No.1 Divisor=10	generated by pow1
c No.2 Divisor=10	generated by pow1
c p0= 10	p1= 10	p2= 10	
c number of digits = 4
c linkingVar[0].size = 10, linkingVar[1].size = 10, linkingVar[2].size = 9, linkingVar[3].size = 1, 
c Pseudo-Boolean Constraints: 147695 variables and 1199116 clauses
c Sum of weights = 269662
c A number of soft clauses remained = 8250
c MRWTO encoding for Pseudo-Boolean Constraints
c sizeMax=868
c No.0 Divisor=10	generated by pow1
c No.1 Divisor=10	generated by pow1
c No.2 Divisor=10	generated by pow1
c p0= 10	p1= 10	p2= 10	
c number of digits = 4
c linkingVar[0].size = 10, linkingVar[1].size = 10, linkingVar[2].size = 9, linkingVar[3].size = 1, 
c Pseudo-Boolean Constraints: 147695 variables and 1199116 clauses
c Sum of weights = 269662
c A number of soft clauses remained = 8250
c MRWTO encoding for Pseudo-Boolean Constraints
c sizeMax=868
c No.0 Divisor=10	generated by pow1
c No.1 Divisor=10	generated by pow1
c No.2 Divisor=10	generated by pow1
c p0= 10	p1= 10	p2= 10	
c number of digits = 4
c linkingVar[0].size = 10, linkingVar[1].size = 10, linkingVar[2].size = 9, linkingVar[3].size = 1, 
c Pseudo-Boolean Constraints: 147695 variables and 1199116 clauses
c Sum of weights = 269662
c A number of soft clauses remained = 8250
c MRWTO encoding for Pseudo-Boolean Constraints
c sizeMax=868
c No.0 Divisor=10	generated by pow1
c No.1 Divisor=10	generated by pow1
c No.2 Divisor=10	generated by pow1
c p0= 10	p1= 10	p2= 10	
c number of digits = 4
c linkingVar[0].size = 10, linkingVar[1].size = 10, linkingVar[2].size = 9, linkingVar[3].size = 1, 
c Pseudo-Boolean Constraints: 147695 variables and 1199116 clauses
c Sum of weights = 269662
c A number of soft clauses remained = 8250
c MRWTO encoding for Pseudo-Boolean Constraints
c sizeMax=868
c No.0 Divisor=10	generated by pow1
c No.1 Divisor=10	generated by pow1
c No.2 Divisor=10	generated by pow1
c p0= 10	p1= 10	p2= 10	
c number of digits = 4
c linkingVar[0].size = 10, linkingVar[1].size = 10, linkingVar[2].size = 9, linkingVar[3].size = 1, 
c Pseudo-Boolean Constraints: 147695 variables and 1199116 clauses
c Sum of weights = 269662
c A number of soft clauses remained = 8250
c MRWTO encoding for Pseudo-Boolean Constraints
c sizeMax=868
c No.0 Divisor=10	generated by pow1
c No.1 Divisor=10	generated by pow1
c No.2 Divisor=10	generated by pow1
c p0= 10	p1= 10	p2= 10	
c number of digits = 4
c linkingVar[0].size = 10, linkingVar[1].size = 10, linkingVar[2].size = 9, linkingVar[3].size = 1, 
c Pseudo-Boolean Constraints: 147695 variables and 1199116 clauses
c Sum of weights = 269662
c A number of soft clauses remained = 8250
c MRWTO encoding for Pseudo-Boolean Constraints
c sizeMax=868
c No.0 Divisor=10	generated by pow1
c No.1 Divisor=10	generated by pow1
c No.2 Divisor=10	generated by pow1
c p0= 10	p1= 10	p2= 10	
c number of digits = 4
c linkingVar[0].size = 10, linkingVar[1].size = 10, linkingVar[2].size = 9, linkingVar[3].size = 1, 
c Pseudo-Boolean Constraints: 147695 variables and 1199116 clauses
c Sum of weights = 269662
c A number of soft clauses remained = 8250
c MRWTO encoding for Pseudo-Boolean Constraints
c sizeMax=868
c No.0 Divisor=10	generated by pow1
c No.1 Divisor=10	generated by pow1
c No.2 Divisor=10	generated by pow1
c p0= 10	p1= 10	p2= 10	
c number of digits = 4
c linkingVar[0].size = 10, linkingVar[1].size = 10, linkingVar[2].size = 9, linkingVar[3].size = 1, 
c Pseudo-Boolean Constraints: 147695 variables and 1199116 clauses
c Sum of weights = 269662
c A number of soft clauses remained = 8250
c MRWTO encoding for Pseudo-Boolean Constraints
c sizeMax=868
c No.0 Divisor=10	generated by pow1
c No.1 Divisor=10	generated by pow1
c No.2 Divisor=10	generated by pow1
c p0= 10	p1= 10	p2= 10	
c number of digits = 4
c linkingVar[0].size = 10, linkingVar[1].size = 10, linkingVar[2].size = 9, linkingVar[3].size = 1, 
c Pseudo-Boolean Constraints: 147695 variables and 1199116 clauses
c Sum of weights = 269662
c A number of soft clauses remained = 8250
c MRWTO encoding for Pseudo-Boolean Constraints
c sizeMax=868
c No.0 Divisor=10	generated by pow1
c No.1 Divisor=10	generated by pow1
c No.2 Divisor=10	generated by pow1
c p0= 10	p1= 10	p2= 10	
c number of digits = 4
c linkingVar[0].size = 10, linkingVar[1].size = 10, linkingVar[2].size = 9, linkingVar[3].size = 1, 
c Pseudo-Boolean Constraints: 147695 variables and 1199116 clauses
c last restart ## conflicts  :  946 45397 
o 504 | cpuTime 9.3125 s
c last restart ## conflicts  :  486 18356 
o 321 | cpuTime 12.3666 s
c last restart ## conflicts  :  336 41997 
o 291 | cpuTime 29.1113 s
c last restart ## conflicts  :  488 26465 
o 289 | cpuTime 90.2113 s
c last restart ## conflicts  :  368 35406 
o 278 | cpuTime 151.945 s
c last restart ## conflicts  :  376 21158 
o 227 | cpuTime 361.087 s
c last restart ## conflicts  :  358 42140 
o 214 | cpuTime 963.916 s
s UNKNOWN
c Search is stopped by a limit (maybe time-limit)
cr positiVarArr: [ | 83(1->66) | 185(1->75) | 229(1->26) | 367(1->71) | 424(1->35) | 556(1->74) | 625(1->50) | 709(1->41) | 824(1->63) | 906(1->52) | 975(1->28) | 1056(1->16) | 1200(1->67) | 1246(1->20) | 1327(1->8) | 1415(1->3) | 1534(1->29) | 1617(1->19) | 1708(2->17) | 1828(3->44) | 1933(4->56) | 1958(5->1) | 2062(6->1) | 2218(7->62) | 2259(8->10) | 2331(9->1) | 2444(10->9) | 2512(11->1) | 2607(12->1) | 2719(13->5) | 2856(14->49) | 2970(15->70) | 3066(16->73) | 3071(17->1) | 3244(18->65) | 3326(19->54) | 3429(20->64) | 3469(21->11) | 3565(22->14) | 3650(23->6) | 3775(24->38) | 3842(25->12) | 3945(26->22) | 4084(27->68) | 4133(28->24) | 4247(29->45) | 4310(30->15) | 4427(31->39) | 4499(32->18) | 4569(33->1) | 4722(34->55) | 4819(35->59) | 4890(36->37) | 4959(37->13) | 5087(38->48) | 5190(39->58) | 5297(40->72) | 5361(41->43) | 5401(42->1) | 5495(43->1) | 5629(44->32) | 5715(45->25) | 5830(46->47) | 5876(47->1) | 5961(48->1) | 6056(49->1) | 6195(50->40) | 6249(51->1) | 6398(52->57) | 6468(53->34) | 6573(54->46) | 6671(55->51) | 6736(56->23) | 6866(57->60) | 6975(58->76) | 7061(59->69) | 7106(60->21) | 7165(61->1) | 7313(62->42) | 7361(63->1) | 7493(64->36) | 7543(65->1) | 7674(66->31) | 7789(67->53) | 7859(68->30) | 7983(69->61) | 8017(70->2) | 8135(71->27) | 8208(72->7) | 8327(73->33) | 8383(74->1) | 8484(75->4) | 8571(76->1) | ]
cr the 1-th chain: [ 1->66->31->39->58->76->1 ] (#non-depot=5) {#cumul.=6}
cr the 2-th chain: [ 1->75->4->56->23->6->1 ] (#non-depot=5) {#cumul.=11}
cr the 3-th chain: [ 1->26->22->14->49->1 ] (#non-depot=4) {#cumul.=15}
cr the 4-th chain: [ 1->71->27->68->30->15->70->2->17->1 ] (#non-depot=8) {#cumul.=23}
cr the 5-th chain: [ 1->35->59->69->61->1 ] (#non-depot=4) {#cumul.=27}
cr the 6-th chain: [ 1->74->1 ] (#non-depot=1) {#cumul.=28}
cr the 7-th chain: [ 1->50->40->72->7->62->42->1 ] (#non-depot=6) {#cumul.=34}
cr the 8-th chain: [ 1->41->43->1 ] (#non-depot=2) {#cumul.=36}
cr the 9-th chain: [ 1->63->1 ] (#non-depot=1) {#cumul.=37}
cr the 10-th chain: [ 1->52->57->60->21->11->1 ] (#non-depot=5) {#cumul.=42}
cr the 11-th chain: [ 1->28->24->38->48->1 ] (#non-depot=4) {#cumul.=46}
cr the 12-th chain: [ 1->16->73->33->1 ] (#non-depot=3) {#cumul.=49}
cr the 13-th chain: [ 1->67->53->34->55->51->1 ] (#non-depot=5) {#cumul.=54}
cr the 14-th chain: [ 1->20->64->36->37->13->5->1 ] (#non-depot=6) {#cumul.=60}
cr the 15-th chain: [ 1->8->10->9->1 ] (#non-depot=3) {#cumul.=63}
cr the 16-th chain: [ 1->3->44->32->18->65->1 ] (#non-depot=5) {#cumul.=68}
cr the 17-th chain: [ 1->29->45->25->12->1 ] (#non-depot=4) {#cumul.=72}
cr the 18-th chain: [ 1->19->54->46->47->1 ] (#non-depot=4) {#cumul.=76}
c Latest Answer = 0 by 8 loops
c restarts              : 23398
c conflicts             : 3458827        (962 /sec)
c decisions             : 142620861      (0.00 % random) (39659 /sec)
c propagations          : 36189211469    (10063169 /sec)
c conflict literals     : 590965268      (31.90 % deleted)
c Memory used           : 2537.00 MB
c CPU time              : 3596.2 s
